data/solutions/recovery/wellformed/moderate/binding/wellformed_moderate_instance11/30.sol
Elapsed time: 0.02
Upper bound: 11294.0
Planning weighted value: 74730.0
C[0]=11294.0
C[1]=11223.0
C[2]=10955.0
y[0]=1
y[1]=0
y[2]=1
y[3]=2
y[4]=2
y[5]=1
y[6]=0
y[7]=2
y[8]=0
y[9]=0
y[10]=2
y[11]=0
y[12]=1
y[13]=0
y[14]=1
y[15]=2
y[16]=1
y[17]=2
y[18]=1
y[19]=2
y[20]=2
y[21]=1
y[22]=0
y[23]=1
y[24]=2
y[25]=0
y[26]=2
y[27]=2
y[28]=2
y[29]=0
y[30]=0
y[31]=1
y[32]=2
