data/solutions/recovery/wellformed/moderate/binding/wellformed_moderate_instance11/30.log

Log started (V12.6.3.0) Fri Apr 20 17:49:50 2018

New value for default parallel thread count: 1

Problem '/tmp/tmpFjSend.pyomo.lp' read.
Read time = 0.00 sec. (0.03 ticks)

Problem name         : /tmp/tmpFjSend.pyomo.lp
Objective sense      : Minimize
Variables            :     104  [Nneg: 1,  Binary: 99,  General Integer: 4]
Objective nonzeros   :       1
Linear constraints   :      73  [Less: 36,  Equal: 37]
  Nonzeros           :    2185
  RHS nonzeros       :      34

Variables            : Min LB: 0.000000         Max UB: 1.000000       
Objective nonzeros   : Min   : 1.000000         Max   : 1.000000       
Linear constraints   :
  Nonzeros           : Min   : 1.000000         Max   : 1950.000       
  RHS nonzeros       : Min   : 1.000000         Max   : 1.000000       
Tried aggregator 2 times.
MIP Presolve eliminated 64 rows and 91 columns.
MIP Presolve modified 4 coefficients.
Aggregator did 3 substitutions.
Reduced MIP has 6 rows, 10 columns, and 21 nonzeros.
Reduced MIP has 9 binaries, 1 generals, 0 SOSs, and 0 indicators.
Presolve time = 0.00 sec. (0.20 ticks)
Found incumbent of value 13253.000000 after 0.00 sec. (0.26 ticks)
Probing time = 0.00 sec. (0.00 ticks)
Tried aggregator 1 time.
Reduced MIP has 6 rows, 10 columns, and 21 nonzeros.
Reduced MIP has 9 binaries, 1 generals, 0 SOSs, and 0 indicators.
Presolve time = 0.00 sec. (0.01 ticks)
Probing time = 0.00 sec. (0.00 ticks)
Clique table members: 3.
MIP emphasis: balance optimality and feasibility.
MIP search method: dynamic search.
Parallel mode: none, using 1 thread.
Root relaxation solution time = 0.00 sec. (0.01 ticks)

        Nodes                                         Cuts/
   Node  Left     Objective  IInf  Best Integer    Best Bound    ItCnt     Gap

*     0+    0                        13253.0000    11196.0000            15.52%
      0     0    11222.0198     4    13253.0000    11222.0198        4   15.32%
*     0+    0                        11321.0000    11222.0198             0.87%
*     0     0      integral     0    11294.0000    11294.0000        6    0.00%
Elapsed time = 0.00 sec. (0.35 ticks, tree = 0.01 MB, solutions = 3)

Root node processing (before b&c):
  Real time             =    0.01 sec. (0.35 ticks)
Sequential b&c:
  Real time             =    0.00 sec. (0.00 ticks)
                          ------------
Total (root+branch&cut) =    0.01 sec. (0.35 ticks)

Solution pool: 3 solutions saved.

MIP - Integer optimal solution:  Objective =  1.1294000000e+04
Solution time =    0.01 sec.  Iterations = 6  Nodes = 0
Deterministic time = 0.35 ticks  (69.17 ticks/sec)


Incumbent solution written to file '/tmp/tmpippaZp.cplex.sol'.

Log started (V12.6.3.0) Fri Apr 20 17:52:53 2018

New value for default parallel thread count: 1

Problem '/tmp/tmp73As8m.pyomo.lp' read.
Read time = 0.00 sec. (0.03 ticks)

Problem name         : /tmp/tmp73As8m.pyomo.lp
Objective sense      : Minimize
Variables            :     104  [Nneg: 1,  Binary: 99,  General Integer: 4]
Objective nonzeros   :       1
Linear constraints   :      73  [Less: 36,  Equal: 37]
  Nonzeros           :    2185
  RHS nonzeros       :      34

Variables            : Min LB: 0.000000         Max UB: 1.000000       
Objective nonzeros   : Min   : 1.000000         Max   : 1.000000       
Linear constraints   :
  Nonzeros           : Min   : 1.000000         Max   : 1950.000       
  RHS nonzeros       : Min   : 1.000000         Max   : 1.000000       
Tried aggregator 2 times.
MIP Presolve eliminated 64 rows and 91 columns.
MIP Presolve modified 4 coefficients.
Aggregator did 3 substitutions.
Reduced MIP has 6 rows, 10 columns, and 21 nonzeros.
Reduced MIP has 9 binaries, 1 generals, 0 SOSs, and 0 indicators.
Presolve time = 0.00 sec. (0.20 ticks)
Found incumbent of value 13253.000000 after 0.00 sec. (0.26 ticks)
Probing time = 0.00 sec. (0.00 ticks)
Tried aggregator 1 time.
Reduced MIP has 6 rows, 10 columns, and 21 nonzeros.
Reduced MIP has 9 binaries, 1 generals, 0 SOSs, and 0 indicators.
Presolve time = 0.00 sec. (0.01 ticks)
Probing time = 0.00 sec. (0.00 ticks)
Clique table members: 3.
MIP emphasis: balance optimality and feasibility.
MIP search method: dynamic search.
Parallel mode: none, using 1 thread.
Root relaxation solution time = 0.00 sec. (0.01 ticks)

        Nodes                                         Cuts/
   Node  Left     Objective  IInf  Best Integer    Best Bound    ItCnt     Gap

*     0+    0                        13253.0000    11196.0000            15.52%
      0     0    11222.0198     4    13253.0000    11222.0198        4   15.32%
*     0+    0                        11321.0000    11222.0198             0.87%
*     0     0      integral     0    11294.0000    11294.0000        6    0.00%
Elapsed time = 0.00 sec. (0.35 ticks, tree = 0.01 MB, solutions = 3)

Root node processing (before b&c):
  Real time             =    0.00 sec. (0.35 ticks)
Sequential b&c:
  Real time             =    0.00 sec. (0.00 ticks)
                          ------------
Total (root+branch&cut) =    0.00 sec. (0.35 ticks)

Solution pool: 3 solutions saved.

MIP - Integer optimal solution:  Objective =  1.1294000000e+04
Solution time =    0.00 sec.  Iterations = 6  Nodes = 0
Deterministic time = 0.35 ticks  (132.40 ticks/sec)


Incumbent solution written to file '/tmp/tmpQd5ti5.cplex.sol'.
